n_agents = 4;
n_tasks = 2;
n_jobs = 5;
n_machines = 4;

dur = [| 2, 7 | 1, 9 | 2, 1 | 5, 3
       | 1, 8 |];

taskToMach =  [| 1, 3 | 3, 1 |  1, 3 | 3,1  |  3, 1 |];

owner = [4, 4, 3, 1, 2];
max_makespan = 25;